p edge 250 3098
e 1 28
e 1 32
e 1 38
e 1 46
e 1 48
e 1 76
e 1 83
e 1 98
e 1 108
e 1 116
e 1 117
e 1 140
e 1 143
e 1 146
e 1 154
e 1 160
e 1 175
e 1 189
e 1 217
e 1 230
e 2 31
e 2 34
e 2 38
e 2 39
e 2 42
e 2 47
e 2 50
e 2 58
e 2 59
e 2 61
e 2 62
e 2 67
e 2 85
e 2 86
e 2 91
e 2 109
e 2 112
e 2 117
e 2 121
e 2 124
e 2 127
e 2 129
e 2 136
e 2 144
e 2 146
e 2 154
e 2 166
e 2 168
e 2 176
e 2 184
e 2 195
e 2 222
e 2 227
e 2 245
e 3 7
e 3 35
e 3 59
e 3 66
e 3 70
e 3 71
e 3 72
e 3 84
e 3 104
e 3 114
e 3 135
e 3 162
e 3 167
e 3 178
e 3 179
e 3 181
e 3 202
e 3 209
e 3 213
e 3 216
e 3 222
e 4 7
e 4 17
e 4 28
e 4 32
e 4 53
e 4 56
e 4 59
e 4 69
e 4 76
e 4 98
e 4 102
e 4 114
e 4 116
e 4 122
e 4 126
e 4 128
e 4 140
e 4 155
e 4 158
e 4 181
e 4 199
e 4 201
e 4 202
e 4 209
e 4 234
e 4 248
e 4 250
e 5 18
e 5 29
e 5 46
e 5 83
e 5 86
e 5 106
e 5 117
e 5 121
e 5 125
e 5 128
e 5 174
e 5 175
e 5 184
e 5 195
e 5 203
e 5 209
e 5 217
e 5 218
e 5 219
e 5 222
e 5 224
e 5 226
e 5 228
e 5 231
e 5 234
e 5 247
e 6 12
e 6 19
e 6 46
e 6 55
e 6 63
e 6 88
e 6 101
e 6 102
e 6 107
e 6 112
e 6 113
e 6 137
e 6 157
e 6 158
e 6 161
e 6 202
e 6 218
e 6 222
e 6 232
e 6 247
e 6 249
e 7 13
e 7 18
e 7 32
e 7 33
e 7 43
e 7 57
e 7 115
e 7 118
e 7 122
e 7 160
e 7 170
e 7 173
e 7 188
e 7 201
e 7 203
e 7 213
e 7 235
e 8 17
e 8 21
e 8 28
e 8 30
e 8 42
e 8 60
e 8 71
e 8 80
e 8 82
e 8 89
e 8 92
e 8 100
e 8 102
e 8 120
e 8 138
e 8 145
e 8 153
e 8 162
e 8 166
e 8 197
e 8 212
e 8 217
e 8 230
e 9 11
e 9 12
e 9 39
e 9 52
e 9 68
e 9 78
e 9 87
e 9 102
e 9 104
e 9 120
e 9 138
e 9 141
e 9 147
e 9 153
e 9 156
e 9 159
e 9 175
e 9 180
e 9 186
e 9 188
e 9 190
e 9 198
e 9 208
e 9 227
e 9 230
e 9 239
e 9 248
e 10 28
e 10 31
e 10 38
e 10 43
e 10 48
e 10 63
e 10 66
e 10 78
e 10 85
e 10 92
e 10 97
e 10 100
e 10 113
e 10 117
e 10 118
e 10 121
e 10 135
e 10 143
e 10 148
e 10 156
e 10 178
e 10 184
e 10 191
e 10 197
e 10 210
e 10 221
e 10 225
e 10 231
e 10 239
e 10 242
e 11 17
e 11 30
e 11 36
e 11 37
e 11 43
e 11 45
e 11 54
e 11 64
e 11 104
e 11 112
e 11 122
e 11 132
e 11 136
e 11 154
e 11 171
e 11 185
e 11 194
e 11 208
e 11 210
e 11 221
e 11 224
e 11 227
e 11 229
e 11 245
e 12 16
e 12 19
e 12 22
e 12 33
e 12 39
e 12 40
e 12 41
e 12 43
e 12 44
e 12 55
e 12 83
e 12 108
e 12 124
e 12 128
e 12 168
e 12 183
e 12 184
e 12 185
e 12 215
e 12 219
e 12 220
e 13 22
e 13 25
e 13 28
e 13 42
e 13 43
e 13 62
e 13 75
e 13 106
e 13 115
e 13 123
e 13 126
e 13 127
e 13 136
e 13 140
e 13 161
e 13 171
e 13 172
e 13 193
e 13 224
e 13 247
e 14 24
e 14 35
e 14 41
e 14 44
e 14 48
e 14 55
e 14 69
e 14 85
e 14 114
e 14 124
e 14 130
e 14 135
e 14 138
e 14 143
e 14 145
e 14 151
e 14 173
e 14 187
e 14 219
e 14 224
e 14 228
e 14 234
e 14 236
e 14 242
e 15 21
e 15 41
e 15 42
e 15 64
e 15 70
e 15 87
e 15 89
e 15 101
e 15 114
e 15 123
e 15 140
e 15 144
e 15 162
e 15 165
e 15 181
e 15 202
e 15 219
e 15 238
e 15 240
e 15 248
e 16 25
e 16 29
e 16 31
e 16 37
e 16 45
e 16 60
e 16 65
e 16 73
e 16 93
e 16 100
e 16 102
e 16 103
e 16 138
e 16 149
e 16 156
e 16 165
e 16 167
e 16 170
e 16 187
e 16 191
e 16 201
e 16 208
e 16 211
e 16 215
e 16 221
e 16 222
e 16 228
e 16 229
e 16 231
e 16 244
e 17 30
e 17 39
e 17 52
e 17 56
e 17 65
e 17 75
e 17 81
e 17 83
e 17 98
e 17 104
e 17 105
e 17 113
e 17 120
e 17 138
e 17 139
e 17 152
e 17 158
e 17 184
e 17 188
e 17 200
e 17 204
e 17 210
e 17 214
e 17 231
e 17 243
e 18 31
e 18 35
e 18 41
e 18 45
e 18 46
e 18 57
e 18 62
e 18 77
e 18 79
e 18 91
e 18 104
e 18 128
e 18 153
e 18 156
e 18 164
e 18 171
e 18 173
e 18 175
e 18 178
e 18 198
e 18 210
e 18 239
e 18 249
e 19 31
e 19 50
e 19 64
e 19 82
e 19 87
e 19 90
e 19 95
e 19 105
e 19 109
e 19 123
e 19 135
e 19 142
e 19 150
e 19 153
e 19 186
e 19 190
e 19 196
e 19 202
e 19 212
e 19 213
e 19 223
e 19 228
e 19 231
e 19 241
e 20 41
e 20 67
e 20 69
e 20 73
e 20 78
e 20 111
e 20 114
e 20 116
e 20 127
e 20 149
e 20 155
e 20 176
e 20 179
e 20 191
e 20 197
e 20 200
e 20 204
e 20 214
e 20 217
e 20 235
e 20 249
e 21 45
e 21 46
e 21 48
e 21 53
e 21 64
e 21 70
e 21 79
e 21 93
e 21 94
e 21 111
e 21 114
e 21 128
e 21 129
e 21 156
e 21 159
e 21 161
e 21 191
e 21 207
e 21 208
e 21 227
e 22 28
e 22 52
e 22 53
e 22 54
e 22 55
e 22 63
e 22 65
e 22 74
e 22 75
e 22 78
e 22 83
e 22 91
e 22 92
e 22 114
e 22 120
e 22 128
e 22 143
e 22 149
e 22 165
e 22 176
e 22 177
e 22 184
e 22 197
e 22 199
e 22 201
e 22 203
e 22 207
e 22 218
e 22 225
e 22 235
e 22 242
e 22 245
e 23 27
e 23 68
e 23 70
e 23 73
e 23 78
e 23 85
e 23 106
e 23 110
e 23 122
e 23 127
e 23 131
e 23 137
e 23 141
e 23 147
e 23 158
e 23 159
e 23 162
e 23 164
e 23 185
e 23 220
e 23 234
e 23 237
e 23 249
e 24 38
e 24 45
e 24 52
e 24 56
e 24 81
e 24 98
e 24 102
e 24 106
e 24 124
e 24 129
e 24 134
e 24 135
e 24 148
e 24 152
e 24 155
e 24 158
e 24 160
e 24 164
e 24 178
e 24 192
e 24 217
e 24 218
e 24 224
e 24 225
e 24 233
e 24 241
e 24 243
e 24 249
e 25 39
e 25 42
e 25 50
e 25 61
e 25 64
e 25 73
e 25 77
e 25 87
e 25 90
e 25 93
e 25 121
e 25 129
e 25 140
e 25 147
e 25 149
e 25 151
e 25 174
e 25 189
e 25 200
e 25 217
e 25 218
e 25 226
e 25 241
e 25 250
e 26 33
e 26 44
e 26 60
e 26 63
e 26 77
e 26 78
e 26 86
e 26 98
e 26 111
e 26 118
e 26 132
e 26 138
e 26 161
e 26 165
e 26 188
e 26 196
e 26 214
e 26 226
e 26 235
e 27 40
e 27 57
e 27 73
e 27 77
e 27 87
e 27 98
e 27 147
e 27 149
e 27 155
e 27 170
e 27 175
e 27 183
e 27 208
e 27 210
e 27 213
e 27 222
e 27 236
e 27 242
e 28 37
e 28 38
e 28 48
e 28 56
e 28 62
e 28 73
e 28 103
e 28 117
e 28 130
e 28 131
e 28 135
e 28 147
e 28 150
e 28 158
e 28 159
e 28 173
e 28 178
e 28 183
e 28 185
e 28 193
e 28 208
e 28 214
e 28 230
e 28 238
e 29 32
e 29 35
e 29 43
e 29 44
e 29 68
e 29 76
e 29 79
e 29 83
e 29 91
e 29 105
e 29 125
e 29 139
e 29 142
e 29 157
e 29 172
e 29 173
e 29 174
e 29 195
e 29 215
e 29 222
e 29 232
e 29 236
e 30 34
e 30 36
e 30 41
e 30 57
e 30 79
e 30 85
e 30 92
e 30 131
e 30 146
e 30 147
e 30 154
e 30 155
e 30 159
e 30 161
e 30 164
e 30 188
e 30 193
e 30 205
e 30 219
e 30 221
e 30 222
e 30 243
e 31 32
e 31 33
e 31 40
e 31 43
e 31 60
e 31 64
e 31 67
e 31 74
e 31 79
e 31 95
e 31 96
e 31 103
e 31 106
e 31 107
e 31 115
e 31 122
e 31 131
e 31 135
e 31 136
e 31 137
e 31 144
e 31 152
e 31 153
e 31 154
e 31 159
e 31 193
e 31 212
e 31 216
e 31 225
e 31 245
e 32 58
e 32 66
e 32 76
e 32 88
e 32 113
e 32 128
e 32 142
e 32 156
e 32 172
e 32 180
e 32 200
e 32 201
e 32 207
e 32 213
e 32 215
e 32 220
e 32 221
e 32 238
e 33 36
e 33 48
e 33 70
e 33 74
e 33 83
e 33 85
e 33 90
e 33 91
e 33 94
e 33 112
e 33 116
e 33 133
e 33 141
e 33 159
e 33 171
e 33 176
e 33 188
e 33 195
e 33 208
e 33 233
e 33 240
e 33 246
e 33 249
e 34 45
e 34 57
e 34 65
e 34 85
e 34 134
e 34 138
e 34 139
e 34 140
e 34 151
e 34 161
e 34 167
e 34 177
e 34 189
e 34 203
e 34 209
e 34 212
e 34 231
e 34 242
e 34 249
e 35 40
e 35 49
e 35 54
e 35 63
e 35 65
e 35 67
e 35 75
e 35 88
e 35 103
e 35 114
e 35 120
e 35 152
e 35 157
e 35 178
e 35 183
e 35 186
e 35 193
e 35 219
e 35 223
e 35 249
e 36 40
e 36 41
e 36 61
e 36 62
e 36 64
e 36 73
e 36 85
e 36 89
e 36 94
e 36 95
e 36 106
e 36 127
e 36 155
e 36 157
e 36 161
e 36 165
e 36 167
e 36 197
e 36 201
e 36 211
e 36 235
e 36 240
e 37 48
e 37 57
e 37 63
e 37 68
e 37 71
e 37 76
e 37 79
e 37 80
e 37 82
e 37 97
e 37 122
e 37 125
e 37 128
e 37 130
e 37 136
e 37 139
e 37 151
e 37 176
e 37 185
e 37 208
e 37 212
e 37 222
e 37 232
e 37 246
e 37 249
e 38 45
e 38 52
e 38 57
e 38 78
e 38 81
e 38 84
e 38 103
e 38 104
e 38 105
e 38 106
e 38 107
e 38 111
e 38 115
e 38 121
e 38 133
e 38 134
e 38 150
e 38 162
e 38 164
e 38 171
e 38 172
e 38 178
e 38 195
e 38 199
e 38 212
e 39 58
e 39 72
e 39 75
e 39 83
e 39 87
e 39 91
e 39 95
e 39 100
e 39 111
e 39 117
e 39 119
e 39 136
e 39 137
e 39 146
e 39 150
e 39 153
e 39 167
e 39 171
e 39 203
e 39 209
e 39 210
e 39 216
e 39 217
e 39 220
e 39 222
e 39 223
e 39 246
e 39 250
e 40 64
e 40 89
e 40 97
e 40 101
e 40 110
e 40 125
e 40 137
e 40 156
e 40 159
e 40 162
e 40 176
e 40 178
e 40 220
e 40 222
e 40 223
e 40 225
e 40 232
e 41 59
e 41 66
e 41 80
e 41 84
e 41 89
e 41 102
e 41 103
e 41 106
e 41 124
e 41 141
e 41 146
e 41 159
e 41 166
e 41 179
e 41 186
e 41 187
e 41 189
e 41 201
e 41 208
e 41 209
e 41 234
e 41 243
e 41 246
e 41 248
e 42 47
e 42 50
e 42 52
e 42 60
e 42 79
e 42 89
e 42 99
e 42 105
e 42 110
e 42 116
e 42 124
e 42 154
e 42 158
e 42 189
e 42 211
e 42 213
e 42 215
e 42 222
e 42 231
e 43 51
e 43 58
e 43 61
e 43 69
e 43 72
e 43 78
e 43 81
e 43 84
e 43 85
e 43 101
e 43 121
e 43 130
e 43 165
e 43 169
e 43 181
e 43 185
e 43 197
e 43 198
e 43 200
e 43 201
e 43 217
e 43 239
e 44 45
e 44 51
e 44 52
e 44 56
e 44 57
e 44 61
e 44 62
e 44 67
e 44 98
e 44 107
e 44 113
e 44 128
e 44 152
e 44 163
e 44 170
e 44 187
e 44 190
e 44 196
e 44 199
e 44 210
e 44 213
e 44 221
e 44 246
e 45 54
e 45 67
e 45 68
e 45 136
e 45 145
e 45 147
e 45 149
e 45 154
e 45 171
e 45 176
e 45 217
e 45 224
e 45 237
e 46 72
e 46 74
e 46 86
e 46 89
e 46 99
e 46 109
e 46 112
e 46 114
e 46 124
e 46 125
e 46 152
e 46 165
e 46 175
e 46 179
e 46 186
e 46 196
e 46 204
e 46 213
e 46 221
e 46 226
e 46 227
e 46 243
e 46 250
e 47 69
e 47 107
e 47 113
e 47 117
e 47 129
e 47 132
e 47 136
e 47 159
e 47 169
e 47 183
e 47 208
e 47 214
e 47 219
e 47 224
e 47 239
e 48 63
e 48 66
e 48 82
e 48 92
e 48 134
e 48 138
e 48 145
e 48 155
e 48 160
e 48 162
e 48 171
e 48 177
e 48 184
e 48 187
e 48 188
e 48 198
e 48 200
e 48 209
e 48 217
e 48 218
e 48 225
e 48 231
e 48 243
e 49 52
e 49 66
e 49 69
e 49 141
e 49 150
e 49 151
e 49 154
e 49 168
e 49 169
e 49 199
e 49 201
e 49 234
e 49 239
e 49 246
e 49 249
e 50 57
e 50 64
e 50 69
e 50 76
e 50 93
e 50 95
e 50 98
e 50 100
e 50 105
e 50 124
e 50 144
e 50 147
e 50 153
e 50 160
e 50 165
e 50 177
e 50 183
e 50 186
e 50 189
e 50 196
e 50 205
e 50 206
e 50 222
e 50 225
e 50 226
e 51 69
e 51 84
e 51 90
e 51 92
e 51 122
e 51 130
e 51 132
e 51 165
e 51 178
e 51 184
e 51 194
e 51 205
e 51 223
e 51 228
e 51 233
e 51 245
e 52 54
e 52 63
e 52 72
e 52 73
e 52 85
e 52 101
e 52 105
e 52 108
e 52 144
e 52 164
e 52 172
e 52 191
e 52 221
e 52 239
e 52 240
e 53 56
e 53 68
e 53 72
e 53 79
e 53 91
e 53 98
e 53 107
e 53 114
e 53 119
e 53 121
e 53 132
e 53 142
e 53 144
e 53 156
e 53 158
e 53 173
e 53 174
e 53 195
e 53 220
e 53 222
e 53 228
e 53 244
e 54 80
e 54 81
e 54 99
e 54 123
e 54 125
e 54 131
e 54 136
e 54 139
e 54 145
e 54 146
e 54 153
e 54 182
e 54 185
e 54 186
e 54 196
e 54 198
e 54 200
e 54 204
e 54 211
e 54 220
e 54 230
e 54 241
e 54 242
e 54 247
e 55 59
e 55 93
e 55 95
e 55 108
e 55 109
e 55 112
e 55 125
e 55 132
e 55 161
e 55 164
e 55 169
e 55 170
e 55 183
e 55 195
e 55 216
e 55 223
e 55 224
e 55 225
e 55 238
e 55 244
e 56 67
e 56 73
e 56 78
e 56 93
e 56 115
e 56 119
e 56 123
e 56 134
e 56 138
e 56 154
e 56 157
e 56 175
e 56 177
e 56 184
e 56 186
e 56 192
e 56 198
e 56 223
e 56 230
e 56 246
e 56 247
e 57 60
e 57 105
e 57 113
e 57 120
e 57 137
e 57 156
e 57 163
e 57 164
e 57 169
e 57 184
e 57 187
e 57 203
e 57 221
e 57 232
e 57 237
e 57 239
e 57 243
e 57 246
e 57 248
e 58 60
e 58 63
e 58 64
e 58 81
e 58 82
e 58 116
e 58 129
e 58 140
e 58 142
e 58 171
e 58 205
e 58 209
e 58 223
e 58 227
e 58 248
e 58 250
e 59 63
e 59 73
e 59 75
e 59 83
e 59 90
e 59 91
e 59 93
e 59 103
e 59 107
e 59 109
e 59 114
e 59 128
e 59 153
e 59 157
e 59 158
e 59 180
e 59 202
e 59 204
e 59 221
e 59 222
e 59 232
e 59 238
e 59 244
e 60 93
e 60 102
e 60 120
e 60 126
e 60 129
e 60 161
e 60 170
e 60 182
e 60 189
e 60 201
e 60 230
e 60 234
e 60 244
e 61 73
e 61 75
e 61 77
e 61 81
e 61 86
e 61 94
e 61 110
e 61 121
e 61 135
e 61 140
e 61 156
e 61 160
e 61 163
e 61 164
e 61 165
e 61 176
e 61 179
e 61 185
e 61 189
e 61 198
e 61 199
e 61 201
e 61 209
e 61 236
e 61 247
e 61 249
e 62 70
e 62 74
e 62 75
e 62 93
e 62 129
e 62 134
e 62 151
e 62 156
e 62 162
e 62 163
e 62 164
e 62 173
e 62 174
e 62 199
e 62 229
e 62 247
e 62 249
e 63 66
e 63 76
e 63 81
e 63 89
e 63 92
e 63 125
e 63 136
e 63 186
e 63 196
e 63 203
e 63 207
e 63 214
e 63 215
e 63 218
e 63 220
e 63 227
e 63 249
e 64 73
e 64 75
e 64 77
e 64 79
e 64 80
e 64 103
e 64 112
e 64 130
e 64 146
e 64 156
e 64 157
e 64 177
e 64 181
e 64 201
e 64 210
e 64 214
e 64 229
e 64 230
e 65 72
e 65 106
e 65 131
e 65 141
e 65 152
e 65 153
e 65 155
e 65 163
e 65 168
e 65 173
e 65 200
e 65 201
e 65 211
e 65 219
e 65 234
e 65 241
e 65 244
e 66 74
e 66 87
e 66 103
e 66 107
e 66 120
e 66 122
e 66 129
e 66 134
e 66 147
e 66 152
e 66 154
e 66 162
e 66 179
e 66 182
e 66 192
e 66 204
e 66 205
e 66 228
e 66 238
e 67 70
e 67 77
e 67 83
e 67 92
e 67 95
e 67 96
e 67 112
e 67 118
e 67 120
e 67 127
e 67 147
e 67 159
e 67 168
e 67 187
e 67 188
e 67 190
e 67 205
e 67 210
e 67 216
e 67 228
e 68 82
e 68 85
e 68 107
e 68 111
e 68 124
e 68 163
e 68 175
e 68 176
e 68 190
e 68 194
e 68 198
e 68 211
e 68 218
e 68 223
e 68 231
e 68 237
e 68 238
e 68 239
e 69 88
e 69 93
e 69 123
e 69 127
e 69 138
e 69 140
e 69 151
e 69 163
e 69 171
e 69 180
e 69 182
e 69 188
e 69 194
e 69 203
e 69 215
e 69 232
e 70 74
e 70 76
e 70 88
e 70 110
e 70 120
e 70 137
e 70 149
e 70 151
e 70 157
e 70 162
e 70 171
e 70 183
e 70 222
e 70 223
e 70 226
e 70 228
e 70 233
e 70 234
e 70 239
e 70 241
e 70 250
e 71 73
e 71 77
e 71 81
e 71 99
e 71 117
e 71 119
e 71 125
e 71 157
e 71 168
e 71 170
e 71 173
e 71 176
e 71 187
e 71 195
e 71 197
e 71 203
e 71 205
e 71 213
e 71 229
e 71 234
e 71 236
e 71 238
e 72 73
e 72 76
e 72 80
e 72 82
e 72 83
e 72 86
e 72 102
e 72 105
e 72 123
e 72 138
e 72 140
e 72 142
e 72 155
e 72 167
e 72 207
e 72 211
e 72 230
e 72 231
e 72 234
e 72 235
e 72 240
e 72 246
e 72 250
e 73 74
e 73 80
e 73 83
e 73 92
e 73 97
e 73 100
e 73 106
e 73 111
e 73 123
e 73 129
e 73 137
e 73 147
e 73 158
e 73 176
e 73 178
e 73 183
e 73 185
e 73 208
e 73 232
e 73 237
e 73 240
e 73 249
e 74 80
e 74 82
e 74 105
e 74 116
e 74 142
e 74 171
e 74 174
e 74 186
e 74 187
e 74 198
e 74 199
e 74 204
e 74 208
e 74 212
e 74 214
e 74 226
e 74 236
e 74 237
e 74 241
e 75 81
e 75 83
e 75 86
e 75 89
e 75 91
e 75 107
e 75 113
e 75 117
e 75 123
e 75 132
e 75 136
e 75 155
e 75 171
e 75 173
e 75 178
e 75 214
e 75 222
e 75 224
e 75 228
e 75 235
e 75 236
e 75 242
e 76 86
e 76 101
e 76 104
e 76 137
e 76 143
e 76 151
e 76 153
e 76 186
e 76 187
e 76 193
e 76 204
e 76 208
e 76 212
e 76 219
e 76 221
e 76 236
e 76 249
e 77 91
e 77 94
e 77 111
e 77 130
e 77 137
e 77 140
e 77 150
e 77 152
e 77 177
e 77 179
e 77 190
e 77 191
e 77 192
e 77 206
e 77 215
e 77 231
e 78 84
e 78 132
e 78 146
e 78 153
e 78 161
e 78 162
e 78 163
e 78 177
e 78 190
e 78 194
e 78 201
e 78 238
e 79 80
e 79 89
e 79 97
e 79 105
e 79 106
e 79 112
e 79 114
e 79 121
e 79 127
e 79 173
e 79 188
e 79 190
e 79 192
e 79 200
e 79 207
e 79 213
e 79 215
e 79 216
e 79 233
e 80 91
e 80 101
e 80 117
e 80 122
e 80 130
e 80 131
e 80 151
e 80 171
e 80 175
e 80 190
e 80 200
e 80 222
e 80 231
e 80 233
e 80 243
e 81 90
e 81 94
e 81 99
e 81 103
e 81 111
e 81 112
e 81 127
e 81 132
e 81 150
e 81 152
e 81 155
e 81 156
e 81 159
e 81 179
e 81 189
e 81 220
e 81 240
e 81 245
e 82 86
e 82 87
e 82 90
e 82 95
e 82 104
e 82 105
e 82 125
e 82 147
e 82 158
e 82 198
e 82 210
e 82 215
e 82 230
e 82 232
e 82 235
e 82 237
e 82 240
e 82 250
e 83 85
e 83 88
e 83 90
e 83 91
e 83 94
e 83 145
e 83 146
e 83 149
e 83 162
e 83 163
e 83 177
e 83 180
e 83 225
e 83 231
e 83 247
e 84 100
e 84 110
e 84 116
e 84 124
e 84 127
e 84 161
e 84 163
e 84 165
e 84 166
e 84 174
e 84 179
e 84 199
e 84 227
e 84 235
e 84 237
e 85 92
e 85 99
e 85 110
e 85 116
e 85 118
e 85 131
e 85 138
e 85 145
e 85 154
e 85 157
e 85 158
e 85 160
e 85 161
e 85 182
e 85 214
e 85 219
e 85 224
e 85 231
e 85 235
e 85 237
e 85 238
e 86 104
e 86 106
e 86 107
e 86 112
e 86 116
e 86 136
e 86 143
e 86 155
e 86 167
e 86 172
e 86 174
e 86 179
e 86 196
e 86 197
e 86 215
e 86 219
e 86 225
e 86 234
e 86 242
e 86 244
e 87 94
e 87 98
e 87 106
e 87 114
e 87 164
e 87 186
e 87 228
e 87 235
e 87 241
e 87 244
e 87 247
e 87 249
e 87 250
e 88 107
e 88 122
e 88 124
e 88 130
e 88 145
e 88 150
e 88 151
e 88 189
e 88 193
e 88 204
e 88 213
e 88 232
e 88 241
e 88 246
e 89 92
e 89 114
e 89 122
e 89 140
e 89 158
e 89 172
e 89 173
e 89 206
e 90 117
e 90 128
e 90 130
e 90 133
e 90 151
e 90 158
e 90 164
e 90 165
e 90 191
e 90 196
e 90 208
e 90 221
e 90 225
e 90 226
e 90 237
e 90 247
e 91 95
e 91 120
e 91 124
e 91 133
e 91 152
e 91 181
e 91 187
e 91 190
e 91 238
e 92 94
e 92 104
e 92 107
e 92 112
e 92 120
e 92 124
e 92 128
e 92 133
e 92 152
e 92 160
e 92 177
e 92 187
e 92 213
e 92 222
e 92 230
e 92 234
e 92 235
e 92 247
e 93 110
e 93 113
e 93 114
e 93 123
e 93 133
e 93 137
e 93 146
e 93 149
e 93 174
e 93 197
e 93 199
e 93 204
e 93 214
e 93 224
e 93 239
e 93 241
e 94 105
e 94 112
e 94 124
e 94 148
e 94 149
e 94 152
e 94 155
e 94 158
e 94 162
e 94 171
e 94 176
e 94 177
e 94 183
e 94 184
e 94 194
e 94 197
e 94 206
e 94 226
e 94 232
e 94 234
e 94 237
e 94 240
e 95 101
e 95 108
e 95 132
e 95 139
e 95 142
e 95 143
e 95 145
e 95 169
e 95 195
e 95 198
e 95 200
e 95 204
e 95 224
e 95 245
e 95 250
e 96 99
e 96 111
e 96 117
e 96 130
e 96 136
e 96 139
e 96 151
e 96 154
e 96 159
e 96 172
e 96 179
e 96 191
e 96 196
e 96 214
e 96 215
e 96 216
e 96 224
e 96 227
e 96 235
e 96 249
e 97 98
e 97 103
e 97 123
e 97 137
e 97 141
e 97 142
e 97 146
e 97 154
e 97 157
e 97 163
e 97 173
e 97 194
e 97 202
e 97 223
e 97 231
e 97 232
e 97 236
e 97 243
e 97 244
e 97 245
e 98 106
e 98 128
e 98 153
e 98 184
e 98 186
e 98 209
e 98 212
e 98 220
e 98 229
e 99 100
e 99 102
e 99 103
e 99 119
e 99 125
e 99 134
e 99 136
e 99 142
e 99 160
e 99 174
e 99 179
e 99 180
e 99 196
e 99 197
e 99 221
e 99 223
e 99 236
e 100 102
e 100 109
e 100 135
e 100 138
e 100 144
e 100 156
e 100 163
e 100 171
e 100 184
e 100 187
e 100 201
e 100 204
e 100 206
e 100 207
e 100 208
e 100 223
e 100 227
e 100 237
e 100 239
e 100 245
e 101 121
e 101 123
e 101 124
e 101 134
e 101 143
e 101 146
e 101 152
e 101 154
e 101 162
e 101 164
e 101 170
e 101 177
e 101 195
e 101 199
e 101 212
e 101 218
e 101 221
e 101 223
e 101 229
e 101 246
e 101 248
e 102 105
e 102 119
e 102 129
e 102 130
e 102 138
e 102 143
e 102 146
e 102 152
e 102 154
e 102 178
e 102 196
e 102 213
e 102 217
e 102 219
e 102 221
e 102 228
e 102 237
e 102 239
e 102 247
e 103 108
e 103 120
e 103 125
e 103 127
e 103 133
e 103 139
e 103 178
e 103 194
e 103 197
e 103 218
e 103 225
e 103 229
e 103 231
e 103 238
e 104 111
e 104 119
e 104 125
e 104 136
e 104 147
e 104 163
e 104 177
e 104 217
e 104 225
e 104 228
e 104 241
e 105 110
e 105 112
e 105 145
e 105 167
e 105 184
e 105 218
e 105 222
e 105 240
e 105 249
e 106 107
e 106 118
e 106 145
e 106 159
e 106 167
e 106 172
e 106 183
e 106 185
e 106 186
e 106 188
e 106 203
e 106 204
e 106 209
e 106 212
e 106 230
e 106 233
e 106 241
e 107 109
e 107 111
e 107 137
e 107 139
e 107 179
e 107 185
e 107 200
e 107 205
e 107 207
e 107 212
e 107 216
e 107 221
e 107 226
e 107 236
e 108 115
e 108 120
e 108 121
e 108 130
e 108 131
e 108 132
e 108 150
e 108 155
e 108 162
e 108 198
e 108 204
e 108 228
e 108 246
e 109 113
e 109 139
e 109 142
e 109 157
e 109 167
e 109 175
e 109 211
e 109 212
e 109 227
e 109 230
e 109 233
e 109 235
e 109 237
e 109 241
e 110 131
e 110 151
e 110 166
e 110 196
e 110 203
e 110 204
e 110 209
e 110 212
e 110 246
e 111 124
e 111 131
e 111 132
e 111 144
e 111 163
e 111 169
e 111 173
e 111 174
e 111 177
e 111 196
e 111 202
e 111 217
e 111 223
e 111 230
e 111 231
e 111 235
e 111 241
e 111 246
e 112 113
e 112 117
e 112 119
e 112 128
e 112 136
e 112 152
e 112 154
e 112 167
e 112 171
e 112 178
e 112 179
e 112 198
e 112 226
e 112 235
e 113 114
e 113 131
e 113 133
e 113 157
e 113 161
e 113 192
e 113 215
e 113 229
e 113 234
e 113 238
e 113 240
e 113 247
e 113 250
e 114 125
e 114 127
e 114 129
e 114 135
e 114 140
e 114 147
e 114 148
e 114 156
e 114 160
e 114 162
e 114 186
e 114 210
e 114 216
e 114 222
e 114 247
e 114 250
e 115 116
e 115 190
e 115 196
e 115 203
e 115 207
e 115 226
e 115 229
e 115 247
e 116 146
e 116 149
e 116 163
e 116 172
e 116 177
e 116 200
e 116 209
e 116 213
e 116 217
e 116 224
e 116 230
e 117 120
e 117 121
e 117 153
e 117 161
e 117 173
e 117 178
e 117 189
e 117 192
e 117 200
e 117 205
e 117 211
e 117 226
e 117 249
e 118 119
e 118 141
e 118 154
e 118 170
e 118 171
e 118 173
e 118 181
e 118 186
e 118 228
e 118 235
e 118 237
e 118 240
e 118 248
e 118 249
e 119 120
e 119 123
e 119 140
e 119 149
e 119 157
e 119 175
e 119 211
e 119 222
e 119 234
e 120 148
e 120 152
e 120 189
e 120 192
e 120 204
e 120 207
e 120 210
e 120 215
e 120 220
e 120 222
e 120 224
e 120 226
e 121 123
e 121 141
e 121 145
e 121 155
e 121 170
e 121 192
e 121 212
e 121 217
e 121 218
e 121 222
e 121 227
e 121 228
e 121 230
e 121 234
e 122 140
e 122 146
e 122 171
e 122 177
e 122 184
e 122 193
e 122 198
e 122 206
e 122 211
e 122 212
e 122 215
e 122 237
e 122 250
e 123 145
e 123 153
e 123 155
e 123 165
e 123 183
e 123 186
e 123 210
e 123 219
e 123 220
e 123 240
e 123 248
e 123 249
e 124 173
e 124 195
e 124 211
e 124 229
e 124 239
e 124 246
e 125 140
e 125 149
e 125 160
e 125 178
e 125 248
e 126 130
e 126 133
e 126 137
e 126 163
e 126 170
e 126 196
e 126 199
e 126 200
e 126 206
e 126 241
e 127 128
e 127 146
e 127 147
e 127 164
e 127 174
e 127 193
e 127 206
e 127 215
e 127 247
e 128 134
e 128 139
e 128 141
e 128 152
e 128 160
e 128 183
e 128 206
e 128 209
e 128 229
e 128 232
e 128 234
e 128 250
e 129 163
e 129 170
e 129 206
e 129 212
e 129 221
e 129 226
e 129 228
e 129 229
e 129 231
e 129 250
e 130 134
e 130 140
e 130 144
e 130 148
e 130 156
e 130 168
e 130 174
e 130 194
e 130 208
e 130 214
e 130 229
e 131 137
e 131 145
e 131 156
e 131 172
e 131 174
e 131 183
e 131 197
e 131 199
e 131 208
e 131 214
e 131 222
e 132 135
e 132 137
e 132 139
e 132 146
e 132 147
e 132 153
e 132 169
e 132 176
e 132 198
e 132 203
e 132 205
e 132 210
e 132 216
e 132 243
e 132 249
e 133 136
e 133 138
e 133 139
e 133 149
e 133 163
e 133 166
e 133 177
e 133 185
e 133 195
e 133 203
e 133 208
e 133 231
e 133 242
e 133 245
e 134 150
e 134 158
e 134 163
e 134 182
e 134 197
e 134 198
e 134 206
e 134 209
e 134 224
e 134 227
e 134 229
e 134 234
e 134 247
e 135 150
e 135 155
e 135 157
e 135 162
e 135 192
e 135 195
e 135 216
e 135 239
e 136 149
e 136 154
e 136 182
e 136 195
e 136 203
e 136 206
e 136 229
e 136 230
e 136 240
e 136 244
e 137 152
e 137 179
e 137 209
e 137 213
e 137 240
e 138 141
e 138 152
e 138 167
e 138 169
e 138 171
e 138 184
e 138 185
e 138 198
e 138 203
e 138 220
e 138 231
e 138 237
e 138 238
e 139 140
e 139 152
e 139 160
e 139 166
e 139 167
e 139 172
e 139 180
e 139 191
e 139 192
e 139 199
e 139 200
e 139 211
e 139 214
e 140 168
e 140 174
e 140 181
e 140 198
e 140 223
e 140 233
e 141 145
e 141 159
e 141 168
e 141 184
e 141 188
e 141 190
e 141 203
e 141 210
e 141 213
e 141 237
e 141 243
e 141 244
e 142 153
e 142 159
e 142 186
e 142 197
e 142 198
e 142 200
e 142 204
e 142 219
e 142 223
e 142 227
e 142 236
e 142 249
e 143 173
e 143 180
e 143 205
e 143 206
e 143 218
e 143 232
e 143 233
e 143 241
e 144 154
e 144 158
e 144 160
e 144 172
e 144 185
e 144 192
e 144 195
e 144 196
e 144 197
e 144 201
e 144 212
e 144 228
e 144 247
e 145 164
e 145 179
e 145 188
e 145 190
e 145 204
e 145 222
e 145 225
e 145 236
e 145 238
e 145 242
e 145 247
e 146 150
e 146 160
e 146 180
e 146 181
e 146 218
e 146 234
e 146 236
e 146 237
e 147 166
e 147 172
e 147 197
e 147 204
e 147 218
e 147 219
e 148 153
e 148 166
e 148 171
e 148 174
e 148 175
e 148 178
e 148 180
e 148 188
e 148 196
e 148 199
e 148 205
e 148 225
e 149 150
e 149 164
e 149 170
e 149 175
e 149 176
e 149 181
e 149 183
e 149 187
e 149 191
e 149 192
e 149 200
e 149 204
e 149 215
e 149 217
e 149 243
e 150 154
e 150 159
e 150 166
e 150 174
e 150 176
e 150 187
e 150 195
e 150 202
e 150 205
e 150 212
e 150 242
e 151 159
e 151 162
e 151 169
e 151 185
e 151 193
e 151 194
e 151 198
e 151 199
e 151 201
e 151 218
e 151 220
e 151 222
e 151 243
e 151 249
e 152 180
e 152 186
e 152 189
e 152 195
e 152 197
e 152 200
e 152 207
e 152 216
e 152 222
e 152 225
e 152 229
e 152 236
e 153 170
e 153 176
e 153 181
e 153 188
e 153 198
e 153 213
e 153 216
e 153 220
e 153 228
e 153 234
e 154 155
e 154 165
e 154 167
e 154 172
e 154 177
e 154 178
e 154 180
e 154 183
e 154 193
e 154 209
e 154 212
e 154 229
e 154 232
e 154 236
e 154 243
e 154 250
e 155 167
e 155 175
e 155 205
e 155 221
e 155 227
e 155 245
e 156 193
e 156 207
e 156 213
e 156 224
e 156 236
e 156 245
e 156 249
e 157 159
e 157 177
e 157 186
e 157 193
e 157 208
e 157 225
e 157 232
e 157 235
e 157 239
e 158 187
e 158 214
e 158 217
e 158 238
e 158 248
e 159 168
e 159 181
e 159 191
e 159 197
e 159 207
e 159 226
e 159 227
e 159 231
e 159 250
e 160 161
e 160 162
e 160 163
e 160 176
e 160 183
e 160 187
e 160 192
e 160 202
e 160 210
e 160 229
e 160 235
e 160 236
e 160 242
e 160 248
e 160 250
e 161 162
e 161 165
e 161 175
e 161 200
e 161 204
e 161 230
e 161 239
e 162 187
e 162 190
e 162 195
e 162 204
e 162 215
e 162 231
e 162 232
e 162 248
e 163 166
e 163 170
e 163 195
e 163 210
e 163 214
e 163 230
e 163 246
e 164 178
e 164 179
e 164 191
e 164 204
e 164 231
e 164 244
e 164 250
e 165 188
e 165 195
e 165 202
e 165 204
e 166 179
e 166 184
e 166 187
e 166 191
e 166 198
e 166 209
e 166 222
e 166 247
e 167 195
e 167 199
e 167 201
e 167 204
e 167 210
e 167 216
e 167 218
e 167 231
e 167 242
e 168 171
e 168 195
e 168 213
e 168 216
e 168 236
e 168 241
e 168 244
e 169 183
e 169 194
e 169 201
e 169 206
e 169 216
e 169 222
e 169 230
e 169 238
e 169 248
e 170 180
e 170 185
e 170 186
e 170 188
e 170 195
e 170 197
e 170 205
e 170 224
e 170 227
e 170 231
e 170 247
e 171 177
e 171 196
e 171 200
e 171 220
e 171 228
e 172 198
e 172 202
e 172 211
e 172 217
e 172 230
e 172 231
e 173 176
e 173 178
e 173 181
e 173 200
e 173 206
e 173 207
e 173 225
e 173 230
e 173 237
e 173 246
e 174 193
e 174 198
e 174 200
e 174 207
e 174 211
e 174 214
e 174 221
e 174 227
e 174 242
e 175 178
e 175 185
e 175 186
e 175 197
e 175 204
e 175 235
e 176 183
e 176 191
e 176 200
e 176 203
e 176 220
e 176 226
e 176 244
e 177 186
e 177 194
e 177 195
e 177 208
e 177 211
e 177 212
e 177 217
e 177 234
e 177 237
e 177 248
e 178 181
e 178 190
e 178 195
e 178 206
e 178 209
e 178 211
e 178 227
e 178 248
e 179 180
e 179 182
e 179 192
e 179 209
e 179 224
e 179 225
e 179 250
e 180 183
e 180 190
e 180 193
e 180 196
e 180 215
e 180 217
e 180 239
e 180 247
e 181 182
e 181 207
e 181 209
e 181 218
e 181 230
e 181 231
e 181 233
e 181 246
e 182 185
e 182 190
e 182 191
e 182 206
e 182 210
e 182 216
e 182 219
e 182 231
e 182 237
e 182 239
e 182 250
e 183 194
e 183 206
e 183 212
e 183 214
e 183 217
e 183 231
e 183 232
e 184 197
e 184 198
e 184 205
e 184 226
e 184 228
e 184 238
e 184 241
e 185 186
e 185 189
e 185 201
e 185 205
e 185 216
e 185 236
e 185 244
e 186 220
e 186 242
e 187 201
e 187 206
e 187 214
e 187 219
e 187 223
e 187 231
e 188 191
e 188 199
e 188 209
e 189 192
e 189 205
e 189 208
e 189 211
e 189 213
e 189 216
e 189 239
e 189 243
e 190 192
e 190 208
e 190 217
e 190 231
e 190 232
e 190 246
e 191 201
e 191 202
e 191 204
e 191 228
e 191 231
e 191 232
e 191 233
e 191 250
e 192 198
e 192 200
e 192 213
e 192 215
e 192 223
e 193 197
e 193 210
e 193 219
e 193 224
e 193 234
e 193 242
e 194 213
e 194 220
e 194 222
e 195 215
e 195 216
e 195 223
e 195 231
e 195 241
e 195 244
e 196 203
e 196 210
e 196 230
e 196 234
e 196 235
e 196 249
e 196 250
e 197 198
e 197 210
e 197 213
e 197 231
e 197 244
e 197 247
e 198 219
e 198 225
e 198 226
e 198 241
e 199 205
e 199 209
e 199 241
e 200 202
e 200 205
e 200 212
e 200 216
e 200 217
e 200 220
e 200 224
e 200 243
e 201 203
e 201 215
e 201 219
e 201 229
e 201 238
e 202 207
e 202 216
e 202 227
e 202 249
e 203 211
e 203 212
e 203 221
e 203 236
e 203 241
e 204 205
e 204 238
e 205 209
e 205 211
e 205 213
e 205 228
e 205 240
e 206 224
e 206 231
e 207 211
e 207 215
e 207 237
e 207 238
e 208 212
e 208 216
e 208 219
e 208 231
e 208 238
e 208 250
e 209 216
e 209 229
e 209 237
e 209 238
e 210 215
e 210 224
e 211 213
e 211 215
e 211 228
e 211 237
e 212 215
e 212 225
e 212 249
e 214 215
e 214 220
e 214 221
e 214 228
e 214 240
e 214 243
e 215 216
e 215 239
e 216 217
e 216 224
e 216 239
e 216 243
e 216 245
e 216 248
e 217 223
e 217 227
e 217 232
e 217 238
e 217 250
e 218 229
e 218 246
e 219 234
e 219 243
e 220 222
e 220 224
e 220 240
e 221 227
e 221 234
e 221 236
e 221 238
e 221 243
e 221 245
e 222 227
e 222 231
e 222 243
e 222 244
e 222 246
e 222 247
e 223 231
e 223 242
e 223 250
e 224 238
e 224 247
e 225 248
e 226 246
e 227 234
e 227 237
e 228 243
e 228 249
e 228 250
e 229 245
e 230 235
e 230 248
e 231 244
e 232 236
e 235 242
e 236 238
e 236 249
e 237 248
e 240 244
